p cnf 31 379
-1 -2 -3 0
1 2 0
1 2 3 0
1 3 0
1 2 3 0
2 3 0
-4 -5 -6 0
4 5 6 0
4 5 0
4 6 0
4 5 6 0
5 6 0
-7 -8 -9 0
7 8 0
7 9 0
8 9 0
7 8 9 0
7 8 9 0
-10 -11 -12 -13 0
-10 -11 -12 -14 0
-10 -11 -13 -14 0
-10 -12 -13 -14 0
-11 -12 -13 -14 0
10 11 12 0
10 11 13 0
10 11 14 0
10 11 12 13 0
10 11 12 14 0
10 11 13 14 0
10 12 13 0
10 12 14 0
10 13 14 0
10 12 13 14 0
11 12 13 0
11 12 14 0
11 13 14 0
11 12 13 14 0
12 13 14 0
-15 -16 -17 -18 0
-15 -16 -17 0
-15 -16 -18 0
-15 -17 -18 0
-16 -17 -18 0
15 16 17 0
15 16 18 0
15 16 17 18 0
15 17 18 0
16 17 18 0
-19 -20 0
-19 -21 0
-19 -22 0
-19 -20 -21 0
-19 -20 -22 0
-19 -21 -22 0
-20 -21 0
-20 -22 0
-21 -22 0
-20 -21 -22 0
-19 -20 -21 0
-19 -20 -22 0
-19 -21 -22 0
-19 -20 -21 -22 0
-20 -21 -22 0
19 20 21 22 0
-23 -24 -25 0
-23 -24 -26 0
-23 -24 -27 0
-23 -24 -25 -26 0
-23 -24 -25 -27 0
-23 -24 -26 -27 0
-23 -25 -26 0
-23 -25 -27 0
-23 -26 -27 0
-23 -25 -26 -27 0
-24 -25 -26 0
-24 -25 -27 0
-24 -26 -27 0
-24 -25 -26 -27 0
-25 -26 -27 0
23 24 25 26 0
23 24 25 27 0
23 24 26 27 0
23 25 26 27 0
24 25 26 27 0
-28 -29 -30 0
-28 -29 -31 0
-28 -29 -30 -31 0
-28 -30 -31 0
-29 -30 -31 0
28 29 30 0
28 29 31 0
28 29 30 31 0
28 30 31 0
29 30 31 0
-1 -4 -10 -15 0
-1 -4 -10 0
-1 -4 -10 -23 0
-1 -4 -10 -28 0
-1 -4 -15 0
-1 -4 -15 -23 0
-1 -4 -15 -28 0
-1 -4 -23 0
-1 -4 -28 0
-1 -4 -23 -28 0
-1 -4 -10 -15 0
-1 -4 -10 -15 -23 0
-1 -4 -10 -15 -28 0
-1 -4 -10 -23 0
-1 -4 -10 -28 0
-1 -4 -10 -23 -28 0
-1 -4 -15 -23 0
-1 -4 -15 -28 0
-1 -4 -15 -23 -28 0
-1 -4 -23 -28 0
-1 -10 -15 0
-1 -10 -15 -23 0
-1 -10 -15 -28 0
-1 -10 -23 0
-1 -10 -28 0
-1 -10 -23 -28 0
-1 -15 -23 0
-1 -15 -28 0
-1 -15 -23 -28 0
-1 -23 -28 0
-1 -10 -15 -23 0
-1 -10 -15 -28 0
-1 -10 -15 -23 -28 0
-1 -10 -23 -28 0
-1 -15 -23 -28 0
-4 -10 -15 0
-4 -10 -15 -23 0
-4 -10 -15 -28 0
-4 -10 -23 0
-4 -10 -28 0
-4 -10 -23 -28 0
-4 -15 -23 0
-4 -15 -28 0
-4 -15 -23 -28 0
-4 -23 -28 0
-4 -10 -15 -23 0
-4 -10 -15 -28 0
-4 -10 -15 -23 -28 0
-4 -10 -23 -28 0
-4 -15 -23 -28 0
-10 -15 -23 0
-10 -15 -28 0
-10 -15 -23 -28 0
-10 -23 -28 0
-15 -23 -28 0
-10 -15 -23 -28 0
1 4 10 15 23 0
1 4 10 15 28 0
1 4 10 23 28 0
1 4 15 23 28 0
1 10 15 23 28 0
4 10 15 23 28 0
-11 -16 -19 -24 0
-11 -16 -19 -29 0
-11 -16 -24 -29 0
-11 -19 -24 -29 0
-16 -19 -24 -29 0
-11 -16 -19 -24 -29 0
11 16 19 0
11 16 24 0
11 16 29 0
11 19 24 0
11 19 29 0
11 24 29 0
16 19 24 0
16 19 29 0
16 24 29 0
19 24 29 0
11 16 19 24 0
11 16 19 29 0
11 16 24 29 0
11 19 24 29 0
16 19 24 29 0
11 16 19 24 0
11 16 19 29 0
11 16 24 29 0
11 19 24 29 0
16 19 24 29 0
11 16 19 24 29 0
-2 -5 -7 -12 -17 0
-2 -5 -7 -12 -20 0
-2 -5 -7 -12 -25 0
-2 -5 -7 -17 -20 0
-2 -5 -7 -17 -25 0
-2 -5 -7 -20 -25 0
-2 -5 -12 -17 -20 0
-2 -5 -12 -17 -25 0
-2 -5 -12 -20 -25 0
-2 -5 -17 -20 -25 0
-2 -7 -12 -17 -20 0
-2 -7 -12 -17 -25 0
-2 -7 -12 -20 -25 0
-2 -7 -17 -20 -25 0
-2 -12 -17 -20 -25 0
-5 -7 -12 -17 -20 0
-5 -7 -12 -17 -25 0
-5 -7 -12 -20 -25 0
-5 -7 -17 -20 -25 0
-5 -12 -17 -20 -25 0
-7 -12 -17 -20 -25 0
2 5 7 12 17 0
2 5 7 12 20 0
2 5 7 12 25 0
2 5 7 12 0
2 5 7 17 20 0
2 5 7 17 25 0
2 5 7 17 0
2 5 7 20 25 0
2 5 7 20 0
2 5 7 25 0
2 5 12 17 20 0
2 5 12 17 25 0
2 5 12 17 0
2 5 12 20 25 0
2 5 12 20 0
2 5 12 25 0
2 5 17 20 25 0
2 5 17 20 0
2 5 17 25 0
2 5 20 25 0
2 7 12 17 20 0
2 7 12 17 25 0
2 7 12 17 0
2 7 12 20 25 0
2 7 12 20 0
2 7 12 25 0
2 7 17 20 25 0
2 7 17 20 0
2 7 17 25 0
2 7 20 25 0
2 12 17 20 25 0
2 12 17 20 0
2 12 17 25 0
2 12 20 25 0
2 17 20 25 0
5 7 12 17 20 0
5 7 12 17 25 0
5 7 12 17 0
5 7 12 20 25 0
5 7 12 20 0
5 7 12 25 0
5 7 17 20 25 0
5 7 17 20 0
5 7 17 25 0
5 7 20 25 0
5 12 17 20 25 0
5 12 17 20 0
5 12 17 25 0
5 12 20 25 0
5 17 20 25 0
7 12 17 20 25 0
7 12 17 20 0
7 12 17 25 0
7 12 20 25 0
7 17 20 25 0
12 17 20 25 0
-6 -8 -13 -18 -21 0
-6 -8 -13 -18 -26 0
-6 -8 -13 -18 -30 0
-6 -8 -13 -21 -26 0
-6 -8 -13 -21 -30 0
-6 -8 -13 -26 -30 0
-6 -8 -18 -21 -26 0
-6 -8 -18 -21 -30 0
-6 -8 -18 -26 -30 0
-6 -8 -21 -26 -30 0
-6 -13 -18 -21 -26 0
-6 -13 -18 -21 -30 0
-6 -13 -18 -26 -30 0
-6 -13 -21 -26 -30 0
-6 -18 -21 -26 -30 0
-8 -13 -18 -21 -26 0
-8 -13 -18 -21 -30 0
-8 -13 -18 -26 -30 0
-8 -13 -21 -26 -30 0
-8 -18 -21 -26 -30 0
-13 -18 -21 -26 -30 0
6 8 13 18 0
6 8 13 21 0
6 8 13 26 0
6 8 13 30 0
6 8 18 21 0
6 8 18 26 0
6 8 18 30 0
6 8 21 26 0
6 8 21 30 0
6 8 26 30 0
6 13 18 21 0
6 13 18 26 0
6 13 18 30 0
6 13 21 26 0
6 13 21 30 0
6 13 26 30 0
6 18 21 26 0
6 18 21 30 0
6 18 26 30 0
6 21 26 30 0
8 13 18 21 0
8 13 18 26 0
8 13 18 30 0
8 13 21 26 0
8 13 21 30 0
8 13 26 30 0
8 18 21 26 0
8 18 21 30 0
8 18 26 30 0
8 21 26 30 0
13 18 21 26 0
13 18 21 30 0
13 18 26 30 0
13 21 26 30 0
18 21 26 30 0
6 8 13 18 21 0
6 8 13 18 26 0
6 8 13 18 30 0
6 8 13 21 26 0
6 8 13 21 30 0
6 8 13 26 30 0
6 8 18 21 26 0
6 8 18 21 30 0
6 8 18 26 30 0
6 8 21 26 30 0
6 13 18 21 26 0
6 13 18 21 30 0
6 13 18 26 30 0
6 13 21 26 30 0
6 18 21 26 30 0
8 13 18 21 26 0
8 13 18 21 30 0
8 13 18 26 30 0
8 13 21 26 30 0
8 18 21 26 30 0
13 18 21 26 30 0
-3 -9 -14 -22 0
-3 -9 -14 -27 0
-3 -9 -14 -31 0
-3 -9 -14 -22 -27 0
-3 -9 -14 -22 -31 0
-3 -9 -14 -27 -31 0
-3 -9 -22 -27 0
-3 -9 -22 -31 0
-3 -9 -27 -31 0
-3 -9 -22 -27 -31 0
-3 -14 -22 -27 0
-3 -14 -22 -31 0
-3 -14 -27 -31 0
-3 -14 -22 -27 -31 0
-3 -22 -27 -31 0
-9 -14 -22 -27 0
-9 -14 -22 -31 0
-9 -14 -27 -31 0
-9 -14 -22 -27 -31 0
-9 -22 -27 -31 0
-14 -22 -27 -31 0
3 9 14 22 0
3 9 14 27 0
3 9 14 31 0
3 9 22 27 0
3 9 22 31 0
3 9 27 31 0
3 14 22 27 0
3 14 22 31 0
3 14 27 31 0
3 22 27 31 0
3 9 14 22 27 0
3 9 14 22 31 0
3 9 14 27 31 0
3 9 22 27 31 0
3 14 22 27 31 0
9 14 22 27 0
9 14 22 31 0
9 14 27 31 0
9 22 27 31 0
14 22 27 31 0
9 14 22 27 31 0
